c This is an instance of the exact track of PACE 2020 Challenge, see https://pacechallenge.org/2020/ 
c TYPE: generated 
c ORIGIN: Python networkx package 
c DESCRIPTION: A Waxman graph (a random geometric graph) generated using waxman_graph function from Python’s networkx package 
p tdp 20 21
1 13
13 4
13 6
13 2
15 20
15 14
15 5
20 7
20 17
20 3
7 2
7 17
12 19
12 9
12 5
8 9
5 18
5 11
5 16
17 10
4 6
